instances/knapsack/discrete/knapsack_40_6.kp
71848
40
190

51 5.1 57
87 8.7 6
1 0.1 87
26 2.6 43
11 1.1 93
45 4.5 72
64 6.4 41
51 5.1 63
100 10.0 30
93 9.3 90
63 6.3 14
38 3.8 46
11 1.1 58
67 6.7 77
40 4.0 98
72 7.2 31
32 3.2 89
99 9.9 81
12 1.2 74
81 8.1 73
24 2.4 41
3 0.3 62
31 3.1 27
22 2.2 35
68 6.8 36
95 9.5 90
85 8.5 55
15 1.5 3
73 7.3 77
26 2.6 16
45 4.5 84
55 5.5 23
7 0.7 51
48 4.8 42
79 7.9 43
80 8.0 68
63 6.3 8
72 7.2 66
31 3.1 94
38 3.8 71

41347
174

[1.06 2.57 2.38 4.02 3.32 2.47 1.67 0.25 1.08 4.29 1.53 1.52 0.96 2.14 3.31 2.48 0.64 0.02 1.54 3.27 0.26 3.49 0.03 4.3 1.3 1.45 2.69 4.09 0.62 0.26 3.76 3.6 0.79 0.88 2.82 1.15 1.5 3.12 1.55 0.45]

[82 19 13 58 39 16 32 98 100 93 98 42 3 27 11 63 76 7 80 85 64 58 87 17 19 47 5 14 44 66 36 18 34 48 55 8 91 7 43 25]
