instances/knapsack/discrete/knapsack_40_6.mps
* Signature: 0xe8445ac406a3125e
NAME knapsack_40_6
ROWS
 N  OBJ
 L  primal_upper
 L  primal_lower
 L  mccormick1[0]
 L  mccormick1[1]
 L  mccormick1[2]
 L  mccormick1[3]
 L  mccormick1[4]
 L  mccormick1[5]
 L  mccormick1[6]
 L  mccormick1[7]
 L  mccormick1[8]
 L  mccormick1[9]
 L  mccormick1[10]
 L  mccormick1[11]
 L  mccormick1[12]
 L  mccormick1[13]
 L  mccormick1[14]
 L  mccormick1[15]
 L  mccormick1[16]
 L  mccormick1[17]
 L  mccormick1[18]
 L  mccormick1[19]
 L  mccormick1[20]
 L  mccormick1[21]
 L  mccormick1[22]
 L  mccormick1[23]
 L  mccormick1[24]
 L  mccormick1[25]
 L  mccormick1[26]
 L  mccormick1[27]
 L  mccormick1[28]
 L  mccormick1[29]
 L  mccormick1[30]
 L  mccormick1[31]
 L  mccormick1[32]
 L  mccormick1[33]
 L  mccormick1[34]
 L  mccormick1[35]
 L  mccormick1[36]
 L  mccormick1[37]
 L  mccormick1[38]
 L  mccormick1[39]
 L  mccormick2[0]
 L  mccormick2[1]
 L  mccormick2[2]
 L  mccormick2[3]
 L  mccormick2[4]
 L  mccormick2[5]
 L  mccormick2[6]
 L  mccormick2[7]
 L  mccormick2[8]
 L  mccormick2[9]
 L  mccormick2[10]
 L  mccormick2[11]
 L  mccormick2[12]
 L  mccormick2[13]
 L  mccormick2[14]
 L  mccormick2[15]
 L  mccormick2[16]
 L  mccormick2[17]
 L  mccormick2[18]
 L  mccormick2[19]
 L  mccormick2[20]
 L  mccormick2[21]
 L  mccormick2[22]
 L  mccormick2[23]
 L  mccormick2[24]
 L  mccormick2[25]
 L  mccormick2[26]
 L  mccormick2[27]
 L  mccormick2[28]
 L  mccormick2[29]
 L  mccormick2[30]
 L  mccormick2[31]
 L  mccormick2[32]
 L  mccormick2[33]
 L  mccormick2[34]
 L  mccormick2[35]
 L  mccormick2[36]
 L  mccormick2[37]
 L  mccormick2[38]
 L  mccormick2[39]
 L  mccormick3[0]
 L  mccormick3[1]
 L  mccormick3[2]
 L  mccormick3[3]
 L  mccormick3[4]
 L  mccormick3[5]
 L  mccormick3[6]
 L  mccormick3[7]
 L  mccormick3[8]
 L  mccormick3[9]
 L  mccormick3[10]
 L  mccormick3[11]
 L  mccormick3[12]
 L  mccormick3[13]
 L  mccormick3[14]
 L  mccormick3[15]
 L  mccormick3[16]
 L  mccormick3[17]
 L  mccormick3[18]
 L  mccormick3[19]
 L  mccormick3[20]
 L  mccormick3[21]
 L  mccormick3[22]
 L  mccormick3[23]
 L  mccormick3[24]
 L  mccormick3[25]
 L  mccormick3[26]
 L  mccormick3[27]
 L  mccormick3[28]
 L  mccormick3[29]
 L  mccormick3[30]
 L  mccormick3[31]
 L  mccormick3[32]
 L  mccormick3[33]
 L  mccormick3[34]
 L  mccormick3[35]
 L  mccormick3[36]
 L  mccormick3[37]
 L  mccormick3[38]
 L  mccormick3[39]
COLUMNS
    MARKER    'MARKER'                 'INTORG'
    x[0]      OBJ       -57
    x[0]      primal_upper  51
    x[0]      primal_lower  1.06
    x[0]      mccormick1[0]  -1
    x[0]      mccormick2[0]  -1
    x[0]      mccormick3[0]  1
    x[1]      OBJ       -6
    x[1]      primal_upper  87
    x[1]      primal_lower  2.57
    x[1]      mccormick1[1]  -1
    x[1]      mccormick2[1]  -1
    x[1]      mccormick3[1]  1
    x[2]      OBJ       -87
    x[2]      primal_upper  1
    x[2]      primal_lower  2.38
    x[2]      mccormick1[2]  -1
    x[2]      mccormick2[2]  -1
    x[2]      mccormick3[2]  1
    x[3]      OBJ       -43
    x[3]      primal_upper  26
    x[3]      primal_lower  4.02
    x[3]      mccormick1[3]  -1
    x[3]      mccormick2[3]  -1
    x[3]      mccormick3[3]  1
    x[4]      OBJ       -93
    x[4]      primal_upper  11
    x[4]      primal_lower  3.32
    x[4]      mccormick1[4]  -1
    x[4]      mccormick2[4]  -1
    x[4]      mccormick3[4]  1
    x[5]      OBJ       -72
    x[5]      primal_upper  45
    x[5]      primal_lower  2.47
    x[5]      mccormick1[5]  -1
    x[5]      mccormick2[5]  -1
    x[5]      mccormick3[5]  1
    x[6]      OBJ       -41
    x[6]      primal_upper  64
    x[6]      primal_lower  1.67
    x[6]      mccormick1[6]  -1
    x[6]      mccormick2[6]  -1
    x[6]      mccormick3[6]  1
    x[7]      OBJ       -63
    x[7]      primal_upper  51
    x[7]      primal_lower  0.25
    x[7]      mccormick1[7]  -1
    x[7]      mccormick2[7]  -1
    x[7]      mccormick3[7]  1
    x[8]      OBJ       -30
    x[8]      primal_upper  100
    x[8]      primal_lower  1.08
    x[8]      mccormick1[8]  -1
    x[8]      mccormick2[8]  -1
    x[8]      mccormick3[8]  1
    x[9]      OBJ       -90
    x[9]      primal_upper  93
    x[9]      primal_lower  4.29
    x[9]      mccormick1[9]  -1
    x[9]      mccormick2[9]  -1
    x[9]      mccormick3[9]  1
    x[10]     OBJ       -14
    x[10]     primal_upper  63
    x[10]     primal_lower  1.53
    x[10]     mccormick1[10]  -1
    x[10]     mccormick2[10]  -1
    x[10]     mccormick3[10]  1
    x[11]     OBJ       -46
    x[11]     primal_upper  38
    x[11]     primal_lower  1.52
    x[11]     mccormick1[11]  -1
    x[11]     mccormick2[11]  -1
    x[11]     mccormick3[11]  1
    x[12]     OBJ       -58
    x[12]     primal_upper  11
    x[12]     primal_lower  0.96
    x[12]     mccormick1[12]  -1
    x[12]     mccormick2[12]  -1
    x[12]     mccormick3[12]  1
    x[13]     OBJ       -77
    x[13]     primal_upper  67
    x[13]     primal_lower  2.14
    x[13]     mccormick1[13]  -1
    x[13]     mccormick2[13]  -1
    x[13]     mccormick3[13]  1
    x[14]     OBJ       -98
    x[14]     primal_upper  40
    x[14]     primal_lower  3.31
    x[14]     mccormick1[14]  -1
    x[14]     mccormick2[14]  -1
    x[14]     mccormick3[14]  1
    x[15]     OBJ       -31
    x[15]     primal_upper  72
    x[15]     primal_lower  2.48
    x[15]     mccormick1[15]  -1
    x[15]     mccormick2[15]  -1
    x[15]     mccormick3[15]  1
    x[16]     OBJ       -89
    x[16]     primal_upper  32
    x[16]     primal_lower  0.64
    x[16]     mccormick1[16]  -1
    x[16]     mccormick2[16]  -1
    x[16]     mccormick3[16]  1
    x[17]     OBJ       -81
    x[17]     primal_upper  99
    x[17]     primal_lower  0.02
    x[17]     mccormick1[17]  -1
    x[17]     mccormick2[17]  -1
    x[17]     mccormick3[17]  1
    x[18]     OBJ       -74
    x[18]     primal_upper  12
    x[18]     primal_lower  1.54
    x[18]     mccormick1[18]  -1
    x[18]     mccormick2[18]  -1
    x[18]     mccormick3[18]  1
    x[19]     OBJ       -73
    x[19]     primal_upper  81
    x[19]     primal_lower  3.27
    x[19]     mccormick1[19]  -1
    x[19]     mccormick2[19]  -1
    x[19]     mccormick3[19]  1
    x[20]     OBJ       -41
    x[20]     primal_upper  24
    x[20]     primal_lower  0.26
    x[20]     mccormick1[20]  -1
    x[20]     mccormick2[20]  -1
    x[20]     mccormick3[20]  1
    x[21]     OBJ       -62
    x[21]     primal_upper  3
    x[21]     primal_lower  3.49
    x[21]     mccormick1[21]  -1
    x[21]     mccormick2[21]  -1
    x[21]     mccormick3[21]  1
    x[22]     OBJ       -27
    x[22]     primal_upper  31
    x[22]     primal_lower  0.03
    x[22]     mccormick1[22]  -1
    x[22]     mccormick2[22]  -1
    x[22]     mccormick3[22]  1
    x[23]     OBJ       -35
    x[23]     primal_upper  22
    x[23]     primal_lower  4.3
    x[23]     mccormick1[23]  -1
    x[23]     mccormick2[23]  -1
    x[23]     mccormick3[23]  1
    x[24]     OBJ       -36
    x[24]     primal_upper  68
    x[24]     primal_lower  1.3
    x[24]     mccormick1[24]  -1
    x[24]     mccormick2[24]  -1
    x[24]     mccormick3[24]  1
    x[25]     OBJ       -90
    x[25]     primal_upper  95
    x[25]     primal_lower  1.45
    x[25]     mccormick1[25]  -1
    x[25]     mccormick2[25]  -1
    x[25]     mccormick3[25]  1
    x[26]     OBJ       -55
    x[26]     primal_upper  85
    x[26]     primal_lower  2.69
    x[26]     mccormick1[26]  -1
    x[26]     mccormick2[26]  -1
    x[26]     mccormick3[26]  1
    x[27]     OBJ       -3
    x[27]     primal_upper  15
    x[27]     primal_lower  4.09
    x[27]     mccormick1[27]  -1
    x[27]     mccormick2[27]  -1
    x[27]     mccormick3[27]  1
    x[28]     OBJ       -77
    x[28]     primal_upper  73
    x[28]     primal_lower  0.62
    x[28]     mccormick1[28]  -1
    x[28]     mccormick2[28]  -1
    x[28]     mccormick3[28]  1
    x[29]     OBJ       -16
    x[29]     primal_upper  26
    x[29]     primal_lower  0.26
    x[29]     mccormick1[29]  -1
    x[29]     mccormick2[29]  -1
    x[29]     mccormick3[29]  1
    x[30]     OBJ       -84
    x[30]     primal_upper  45
    x[30]     primal_lower  3.76
    x[30]     mccormick1[30]  -1
    x[30]     mccormick2[30]  -1
    x[30]     mccormick3[30]  1
    x[31]     OBJ       -23
    x[31]     primal_upper  55
    x[31]     primal_lower  3.6
    x[31]     mccormick1[31]  -1
    x[31]     mccormick2[31]  -1
    x[31]     mccormick3[31]  1
    x[32]     OBJ       -51
    x[32]     primal_upper  7
    x[32]     primal_lower  0.79
    x[32]     mccormick1[32]  -1
    x[32]     mccormick2[32]  -1
    x[32]     mccormick3[32]  1
    x[33]     OBJ       -42
    x[33]     primal_upper  48
    x[33]     primal_lower  0.88
    x[33]     mccormick1[33]  -1
    x[33]     mccormick2[33]  -1
    x[33]     mccormick3[33]  1
    x[34]     OBJ       -43
    x[34]     primal_upper  79
    x[34]     primal_lower  2.82
    x[34]     mccormick1[34]  -1
    x[34]     mccormick2[34]  -1
    x[34]     mccormick3[34]  1
    x[35]     OBJ       -68
    x[35]     primal_upper  80
    x[35]     primal_lower  1.15
    x[35]     mccormick1[35]  -1
    x[35]     mccormick2[35]  -1
    x[35]     mccormick3[35]  1
    x[36]     OBJ       -8
    x[36]     primal_upper  63
    x[36]     primal_lower  1.5
    x[36]     mccormick1[36]  -1
    x[36]     mccormick2[36]  -1
    x[36]     mccormick3[36]  1
    x[37]     OBJ       -66
    x[37]     primal_upper  72
    x[37]     primal_lower  3.12
    x[37]     mccormick1[37]  -1
    x[37]     mccormick2[37]  -1
    x[37]     mccormick3[37]  1
    x[38]     OBJ       -94
    x[38]     primal_upper  31
    x[38]     primal_lower  1.55
    x[38]     mccormick1[38]  -1
    x[38]     mccormick2[38]  -1
    x[38]     mccormick3[38]  1
    x[39]     OBJ       -71
    x[39]     primal_upper  38
    x[39]     primal_lower  0.45
    x[39]     mccormick1[39]  -1
    x[39]     mccormick2[39]  -1
    x[39]     mccormick3[39]  1
    u[0]      primal_lower  82
    u[0]      mccormick1[0]  1
    u[0]      mccormick3[0]  1
    u[1]      primal_lower  19
    u[1]      mccormick1[1]  1
    u[1]      mccormick3[1]  1
    u[2]      primal_lower  13
    u[2]      mccormick1[2]  1
    u[2]      mccormick3[2]  1
    u[3]      primal_lower  58
    u[3]      mccormick1[3]  1
    u[3]      mccormick3[3]  1
    u[4]      primal_lower  39
    u[4]      mccormick1[4]  1
    u[4]      mccormick3[4]  1
    u[5]      primal_lower  16
    u[5]      mccormick1[5]  1
    u[5]      mccormick3[5]  1
    u[6]      primal_lower  32
    u[6]      mccormick1[6]  1
    u[6]      mccormick3[6]  1
    u[7]      primal_lower  98
    u[7]      mccormick1[7]  1
    u[7]      mccormick3[7]  1
    u[8]      primal_lower  100
    u[8]      mccormick1[8]  1
    u[8]      mccormick3[8]  1
    u[9]      primal_lower  93
    u[9]      mccormick1[9]  1
    u[9]      mccormick3[9]  1
    u[10]     primal_lower  98
    u[10]     mccormick1[10]  1
    u[10]     mccormick3[10]  1
    u[11]     primal_lower  42
    u[11]     mccormick1[11]  1
    u[11]     mccormick3[11]  1
    u[12]     primal_lower  3
    u[12]     mccormick1[12]  1
    u[12]     mccormick3[12]  1
    u[13]     primal_lower  27
    u[13]     mccormick1[13]  1
    u[13]     mccormick3[13]  1
    u[14]     primal_lower  11
    u[14]     mccormick1[14]  1
    u[14]     mccormick3[14]  1
    u[15]     primal_lower  63
    u[15]     mccormick1[15]  1
    u[15]     mccormick3[15]  1
    u[16]     primal_lower  76
    u[16]     mccormick1[16]  1
    u[16]     mccormick3[16]  1
    u[17]     primal_lower  7
    u[17]     mccormick1[17]  1
    u[17]     mccormick3[17]  1
    u[18]     primal_lower  80
    u[18]     mccormick1[18]  1
    u[18]     mccormick3[18]  1
    u[19]     primal_lower  85
    u[19]     mccormick1[19]  1
    u[19]     mccormick3[19]  1
    u[20]     primal_lower  64
    u[20]     mccormick1[20]  1
    u[20]     mccormick3[20]  1
    u[21]     primal_lower  58
    u[21]     mccormick1[21]  1
    u[21]     mccormick3[21]  1
    u[22]     primal_lower  87
    u[22]     mccormick1[22]  1
    u[22]     mccormick3[22]  1
    u[23]     primal_lower  17
    u[23]     mccormick1[23]  1
    u[23]     mccormick3[23]  1
    u[24]     primal_lower  19
    u[24]     mccormick1[24]  1
    u[24]     mccormick3[24]  1
    u[25]     primal_lower  47
    u[25]     mccormick1[25]  1
    u[25]     mccormick3[25]  1
    u[26]     primal_lower  5
    u[26]     mccormick1[26]  1
    u[26]     mccormick3[26]  1
    u[27]     primal_lower  14
    u[27]     mccormick1[27]  1
    u[27]     mccormick3[27]  1
    u[28]     primal_lower  44
    u[28]     mccormick1[28]  1
    u[28]     mccormick3[28]  1
    u[29]     primal_lower  66
    u[29]     mccormick1[29]  1
    u[29]     mccormick3[29]  1
    u[30]     primal_lower  36
    u[30]     mccormick1[30]  1
    u[30]     mccormick3[30]  1
    u[31]     primal_lower  18
    u[31]     mccormick1[31]  1
    u[31]     mccormick3[31]  1
    u[32]     primal_lower  34
    u[32]     mccormick1[32]  1
    u[32]     mccormick3[32]  1
    u[33]     primal_lower  48
    u[33]     mccormick1[33]  1
    u[33]     mccormick3[33]  1
    u[34]     primal_lower  55
    u[34]     mccormick1[34]  1
    u[34]     mccormick3[34]  1
    u[35]     primal_lower  8
    u[35]     mccormick1[35]  1
    u[35]     mccormick3[35]  1
    u[36]     primal_lower  91
    u[36]     mccormick1[36]  1
    u[36]     mccormick3[36]  1
    u[37]     primal_lower  7
    u[37]     mccormick1[37]  1
    u[37]     mccormick3[37]  1
    u[38]     primal_lower  43
    u[38]     mccormick1[38]  1
    u[38]     mccormick3[38]  1
    u[39]     primal_lower  25
    u[39]     mccormick1[39]  1
    u[39]     mccormick3[39]  1
    r[0]      primal_upper  5.1
    r[0]      mccormick2[0]  1
    r[0]      mccormick3[0]  -1
    r[1]      primal_upper  8.7
    r[1]      mccormick2[1]  1
    r[1]      mccormick3[1]  -1
    r[2]      primal_upper  0.1
    r[2]      mccormick2[2]  1
    r[2]      mccormick3[2]  -1
    r[3]      primal_upper  2.6
    r[3]      mccormick2[3]  1
    r[3]      mccormick3[3]  -1
    r[4]      primal_upper  1.1
    r[4]      mccormick2[4]  1
    r[4]      mccormick3[4]  -1
    r[5]      primal_upper  4.5
    r[5]      mccormick2[5]  1
    r[5]      mccormick3[5]  -1
    r[6]      primal_upper  6.4
    r[6]      mccormick2[6]  1
    r[6]      mccormick3[6]  -1
    r[7]      primal_upper  5.1
    r[7]      mccormick2[7]  1
    r[7]      mccormick3[7]  -1
    r[8]      primal_upper  10
    r[8]      mccormick2[8]  1
    r[8]      mccormick3[8]  -1
    r[9]      primal_upper  9.3
    r[9]      mccormick2[9]  1
    r[9]      mccormick3[9]  -1
    r[10]     primal_upper  6.3
    r[10]     mccormick2[10]  1
    r[10]     mccormick3[10]  -1
    r[11]     primal_upper  3.8
    r[11]     mccormick2[11]  1
    r[11]     mccormick3[11]  -1
    r[12]     primal_upper  1.1
    r[12]     mccormick2[12]  1
    r[12]     mccormick3[12]  -1
    r[13]     primal_upper  6.7
    r[13]     mccormick2[13]  1
    r[13]     mccormick3[13]  -1
    r[14]     primal_upper  4
    r[14]     mccormick2[14]  1
    r[14]     mccormick3[14]  -1
    r[15]     primal_upper  7.2
    r[15]     mccormick2[15]  1
    r[15]     mccormick3[15]  -1
    r[16]     primal_upper  3.2
    r[16]     mccormick2[16]  1
    r[16]     mccormick3[16]  -1
    r[17]     primal_upper  9.9
    r[17]     mccormick2[17]  1
    r[17]     mccormick3[17]  -1
    r[18]     primal_upper  1.2
    r[18]     mccormick2[18]  1
    r[18]     mccormick3[18]  -1
    r[19]     primal_upper  8.1
    r[19]     mccormick2[19]  1
    r[19]     mccormick3[19]  -1
    r[20]     primal_upper  2.4
    r[20]     mccormick2[20]  1
    r[20]     mccormick3[20]  -1
    r[21]     primal_upper  0.3
    r[21]     mccormick2[21]  1
    r[21]     mccormick3[21]  -1
    r[22]     primal_upper  3.1
    r[22]     mccormick2[22]  1
    r[22]     mccormick3[22]  -1
    r[23]     primal_upper  2.2
    r[23]     mccormick2[23]  1
    r[23]     mccormick3[23]  -1
    r[24]     primal_upper  6.8
    r[24]     mccormick2[24]  1
    r[24]     mccormick3[24]  -1
    r[25]     primal_upper  9.5
    r[25]     mccormick2[25]  1
    r[25]     mccormick3[25]  -1
    r[26]     primal_upper  8.5
    r[26]     mccormick2[26]  1
    r[26]     mccormick3[26]  -1
    r[27]     primal_upper  1.5
    r[27]     mccormick2[27]  1
    r[27]     mccormick3[27]  -1
    r[28]     primal_upper  7.3
    r[28]     mccormick2[28]  1
    r[28]     mccormick3[28]  -1
    r[29]     primal_upper  2.6
    r[29]     mccormick2[29]  1
    r[29]     mccormick3[29]  -1
    r[30]     primal_upper  4.5
    r[30]     mccormick2[30]  1
    r[30]     mccormick3[30]  -1
    r[31]     primal_upper  5.5
    r[31]     mccormick2[31]  1
    r[31]     mccormick3[31]  -1
    r[32]     primal_upper  0.7
    r[32]     mccormick2[32]  1
    r[32]     mccormick3[32]  -1
    r[33]     primal_upper  4.8
    r[33]     mccormick2[33]  1
    r[33]     mccormick3[33]  -1
    r[34]     primal_upper  7.9
    r[34]     mccormick2[34]  1
    r[34]     mccormick3[34]  -1
    r[35]     primal_upper  8
    r[35]     mccormick2[35]  1
    r[35]     mccormick3[35]  -1
    r[36]     primal_upper  6.3
    r[36]     mccormick2[36]  1
    r[36]     mccormick3[36]  -1
    r[37]     primal_upper  7.2
    r[37]     mccormick2[37]  1
    r[37]     mccormick3[37]  -1
    r[38]     primal_upper  3.1
    r[38]     mccormick2[38]  1
    r[38]     mccormick3[38]  -1
    r[39]     primal_upper  3.8
    r[39]     mccormick2[39]  1
    r[39]     mccormick3[39]  -1
    MARKER    'MARKER'                 'INTEND'
RHS
    RHS1      primal_upper  190
    RHS1      primal_lower  174
    RHS1      mccormick3[0]  1
    RHS1      mccormick3[1]  1
    RHS1      mccormick3[2]  1
    RHS1      mccormick3[3]  1
    RHS1      mccormick3[4]  1
    RHS1      mccormick3[5]  1
    RHS1      mccormick3[6]  1
    RHS1      mccormick3[7]  1
    RHS1      mccormick3[8]  1
    RHS1      mccormick3[9]  1
    RHS1      mccormick3[10]  1
    RHS1      mccormick3[11]  1
    RHS1      mccormick3[12]  1
    RHS1      mccormick3[13]  1
    RHS1      mccormick3[14]  1
    RHS1      mccormick3[15]  1
    RHS1      mccormick3[16]  1
    RHS1      mccormick3[17]  1
    RHS1      mccormick3[18]  1
    RHS1      mccormick3[19]  1
    RHS1      mccormick3[20]  1
    RHS1      mccormick3[21]  1
    RHS1      mccormick3[22]  1
    RHS1      mccormick3[23]  1
    RHS1      mccormick3[24]  1
    RHS1      mccormick3[25]  1
    RHS1      mccormick3[26]  1
    RHS1      mccormick3[27]  1
    RHS1      mccormick3[28]  1
    RHS1      mccormick3[29]  1
    RHS1      mccormick3[30]  1
    RHS1      mccormick3[31]  1
    RHS1      mccormick3[32]  1
    RHS1      mccormick3[33]  1
    RHS1      mccormick3[34]  1
    RHS1      mccormick3[35]  1
    RHS1      mccormick3[36]  1
    RHS1      mccormick3[37]  1
    RHS1      mccormick3[38]  1
    RHS1      mccormick3[39]  1
BOUNDS
 BV BND1      x[0]    
 BV BND1      x[1]    
 BV BND1      x[2]    
 BV BND1      x[3]    
 BV BND1      x[4]    
 BV BND1      x[5]    
 BV BND1      x[6]    
 BV BND1      x[7]    
 BV BND1      x[8]    
 BV BND1      x[9]    
 BV BND1      x[10]   
 BV BND1      x[11]   
 BV BND1      x[12]   
 BV BND1      x[13]   
 BV BND1      x[14]   
 BV BND1      x[15]   
 BV BND1      x[16]   
 BV BND1      x[17]   
 BV BND1      x[18]   
 BV BND1      x[19]   
 BV BND1      x[20]   
 BV BND1      x[21]   
 BV BND1      x[22]   
 BV BND1      x[23]   
 BV BND1      x[24]   
 BV BND1      x[25]   
 BV BND1      x[26]   
 BV BND1      x[27]   
 BV BND1      x[28]   
 BV BND1      x[29]   
 BV BND1      x[30]   
 BV BND1      x[31]   
 BV BND1      x[32]   
 BV BND1      x[33]   
 BV BND1      x[34]   
 BV BND1      x[35]   
 BV BND1      x[36]   
 BV BND1      x[37]   
 BV BND1      x[38]   
 BV BND1      x[39]   
 BV BND1      u[0]    
 BV BND1      u[1]    
 BV BND1      u[2]    
 BV BND1      u[3]    
 BV BND1      u[4]    
 BV BND1      u[5]    
 BV BND1      u[6]    
 BV BND1      u[7]    
 BV BND1      u[8]    
 BV BND1      u[9]    
 BV BND1      u[10]   
 BV BND1      u[11]   
 BV BND1      u[12]   
 BV BND1      u[13]   
 BV BND1      u[14]   
 BV BND1      u[15]   
 BV BND1      u[16]   
 BV BND1      u[17]   
 BV BND1      u[18]   
 BV BND1      u[19]   
 BV BND1      u[20]   
 BV BND1      u[21]   
 BV BND1      u[22]   
 BV BND1      u[23]   
 BV BND1      u[24]   
 BV BND1      u[25]   
 BV BND1      u[26]   
 BV BND1      u[27]   
 BV BND1      u[28]   
 BV BND1      u[29]   
 BV BND1      u[30]   
 BV BND1      u[31]   
 BV BND1      u[32]   
 BV BND1      u[33]   
 BV BND1      u[34]   
 BV BND1      u[35]   
 BV BND1      u[36]   
 BV BND1      u[37]   
 BV BND1      u[38]   
 BV BND1      u[39]   
 BV BND1      r[0]    
 BV BND1      r[1]    
 BV BND1      r[2]    
 BV BND1      r[3]    
 BV BND1      r[4]    
 BV BND1      r[5]    
 BV BND1      r[6]    
 BV BND1      r[7]    
 BV BND1      r[8]    
 BV BND1      r[9]    
 BV BND1      r[10]   
 BV BND1      r[11]   
 BV BND1      r[12]   
 BV BND1      r[13]   
 BV BND1      r[14]   
 BV BND1      r[15]   
 BV BND1      r[16]   
 BV BND1      r[17]   
 BV BND1      r[18]   
 BV BND1      r[19]   
 BV BND1      r[20]   
 BV BND1      r[21]   
 BV BND1      r[22]   
 BV BND1      r[23]   
 BV BND1      r[24]   
 BV BND1      r[25]   
 BV BND1      r[26]   
 BV BND1      r[27]   
 BV BND1      r[28]   
 BV BND1      r[29]   
 BV BND1      r[30]   
 BV BND1      r[31]   
 BV BND1      r[32]   
 BV BND1      r[33]   
 BV BND1      r[34]   
 BV BND1      r[35]   
 BV BND1      r[36]   
 BV BND1      r[37]   
 BV BND1      r[38]   
 BV BND1      r[39]   
ENDATA
